SAT/213076003_SAT/Q2/213076003_Q2_n4_SAT.out
SAT
1 2 3 4 -5 -6 7 8 9 10 -11 -12 13 14 15 -16 -17 -18 19 20 -21 -22 -23 -24 0


Variable indexes are as follows
p0 q0 r0 s0 x0 p1 q1 r1 s1 x1  p2  q2 r2 s2 x2  p3  q3  r3 s3 x3  p4  q4  r4  s4
 1  2  3  4 -5 -6  7  8  9 10 -11 -12 13 14 15 -16 -17 -18 19 20 -21 -22 -23 -24
 
Table below is generated as per above output

Pk Qk Rk Sk Xk Pk+1 Qk+1 Rk+1 Sk+1
 1  1  1  1  0   0    1    1    1
 0  1  1  1  1   0    0    1    1
 0  0  1  1  1   0    0    0    1
 0  0  0  1  1   0    0    0    0